code/part-2/problem1.out
Problem:    problem1
Rows:       17
Columns:    18 (18 integer, 0 binary)
Non-zeros:  84
Status:     INTEGER OPTIMAL
Objective:  Expense = 160 (MINimum)

   No.   Row name        Activity     Lower bound   Upper bound
------ ------------    ------------- ------------- -------------
     1 Expense                  -750                             
     2 Volume[C1]              0.088                         0.1 
     3 Volume[C2]              0.136                        0.15 
     4 Volume[C3]              0.058                        0.07 
     5 Volume[C4]              0.088                         0.1 
     6 Volume[C5]                0.1                        0.15 
     7 Volume[C6]               0.04                        0.07 
     8 Weight[C1]                 50                          50 
     9 Weight[C2]                 56                          60 
    10 Weight[C3]                 40                          40 
    11 Weight[C4]                 50                          50 
    12 Weight[C5]                 60                          60 
    13 Weight[C6]                 40                          40 
    14 Gravity_Center
                                  12            -0               
    15 Baggage_Quantity[M1]
                                   6                          22 
    16 Baggage_Quantity[M2]
                                  18                          18 
    17 Baggage_Quantity[M3]
                                  11                          11 

   No. Column name       Activity     Lower bound   Upper bound
------ ------------    ------------- ------------- -------------
     1 baggages[C1,M1]             2             0               
     2 baggages[C2,M1]             0             0               
     3 baggages[C3,M1]             2             0               
     4 baggages[C4,M1]             2             0               
     5 baggages[C5,M1]             0             0               
     6 baggages[C6,M1]             0             0               

     7 baggages[C1,M2]             2             0               
     8 baggages[C2,M2]             2             0               
     9 baggages[C3,M2]             2             0               
    10 baggages[C4,M2]             2             0               
    11 baggages[C5,M2]             5             0               
    12 baggages[C6,M2]             5             0               

    13 baggages[C1,M3]             2             0               
    14 baggages[C2,M3]             4             0               
    15 baggages[C3,M3]             1             0               
    16 baggages[C4,M3]             2             0               
    17 baggages[C5,M3]             2             0               
    18 baggages[C6,M3]             0             0               

Integer feasibility conditions:

KKT.PE: max.abs.err = 0.00e+00 on row 0
        max.rel.err = 0.00e+00 on row 0
        High quality

KKT.PB: max.abs.err = 0.00e+00 on row 0
        max.rel.err = 0.00e+00 on row 0
        High quality

End of output
